c cnf/enc2_cachet.cnf
c bif/cancer.bif
c
p cnf 20 30
w 1 -1
w 2 -1
w 3 0.9
w 4 -1
w 5 -1
w 6 0.3
w 7 -1
w 8 -1
w 9 0.03
w 10 0.001
w 11 0.05
w 12 0.02
w 13 -1
w 14 -1
w 15 0.9
w 16 0.2
w 17 -1
w 18 -1
w 19 0.65
w 20 0.3
1 2 0
-1 -2 0
-3 1 0
3 2 0
4 5 0
-4 -5 0
-6 4 0
6 5 0
7 8 0
-7 -8 0
-1 -4 -9 7 0
-1 -5 -10 7 0
-2 -4 -11 7 0
-2 -5 -12 7 0
-1 -4 9 8 0
-1 -5 10 8 0
-2 -4 11 8 0
-2 -5 12 8 0
13 14 0
-13 -14 0
-7 -15 13 0
-8 -16 13 0
-7 15 14 0
-8 16 14 0
17 18 0
-17 -18 0
-7 -19 17 0
-8 -20 17 0
-7 19 18 0
-8 20 18 0
